32 30
27 897
8 473
1 544
26 511
21 110
24 3
24 203
11 18
3 752
15 983
15 614
6 208
29 548
26 605
26 431
25 458
15 464
18 374
2 706
8 541
13 230
13 139
18 194
4 569
17 549
5 36
17 335
18 752
7 158
17 811
25 649
24 827
